
p cnf 77 1090
55 0
-45 0
-45 0
-45 0
45 0
45 0
-45 0
-49 0
-49 0
49 0
49 0
74 0
-30 -49 74 0
-74 0
30 0
49 0
-44 0
-21 0
21 0
-17 54 0
17 54 0
17 -54 0
-17 -54 0
-17 0
17 0
54 0
-54 0
41 0
41 0
-41 0
-41 0
49 0
-49 0
-22 0
49 0
22 0
-49 0
14 0
-14 0
14 0
-14 0
47 0
-47 0
47 0
-47 0
1 0
1 14 20 0
-1 0
-20 0
-14 0
21 0
-21 0
-59 73 75 -76 0
7 0
7 0
-73 0
-7 0
59 0
-7 0
-7 0
76 0
-75 0
21 0
-21 0
-21 0
21 0
7 0
-7 0
-34 0
34 0
1 0
41 0
41 0
-41 0
-41 0
34 -48 0
-34 -48 0
-34 0
34 0
48 0
9 0
-9 0
-9 0
-14 0
14 0
14 0
-14 0
38 0
9 0
38 0
-38 0
-38 0
68 0
-13 38 68 0
-68 0
13 0
-38 0
39 0
-39 0
7 0
-47 51 0
-7 0
-7 0
51 0
7 0
-51 0
-47 -51 0
7 0
-7 0
-51 0
51 0
47 0
-22 0
12 0
22 0
-12 0
12 0
-12 0
4 -12 0
-4 12 0
-4 -12 0
4 12 0
-22 0
22 0
53 0
53 0
-28 48 0
28 0
28 48 0
-53 0
28 0
-53 0
-28 0
-38 0
38 0
38 0
-38 0
18 0
-28 0
18 0
-18 0
-48 0
-18 0
-48 0
48 0
-48 0
48 0
70 0
18 -27 70 0
-70 0
58 0
27 0
-58 0
-18 0
58 0
-58 0
3 0
-36 0
7 0
-7 0
-7 0
7 0
-36 0
36 0
36 0
-2 -35 0
-13 0
13 0
13 0
-13 0
55 0
-55 0
-55 0
55 0
-41 0
41 0
-46 0
46 0
-17 0
-22 0
-17 0
22 0
17 0
17 0
-17 0
-17 0
17 0
17 0
56 0
-56 0
51 0
51 -57 66 0
-51 0
57 0
-22 0
-66 0
22 0
-45 0
45 0
56 0
56 0
-56 0
-56 0
3 -35 0
3 0
-3 0
35 0
-21 0
-21 0
21 0
21 0
13 0
-13 0
21 0
13 0
-13 0
-57 0
26 0
27 0
26 -57 0
27 0
57 0
-27 0
-27 0
-26 0
-20 0
20 0
-20 0
-57 0
57 0
-20 0
-20 0
20 0
20 0
26 0
-26 0
20 0
-46 0
46 0
46 0
-46 0
38 0
-58 0
-58 66 -77 0
58 0
-66 0
77 0
-38 0
38 -56 0
56 0
-56 0
7 27 0
7 0
27 0
-7 0
-27 0
17 0
-17 0
-17 0
17 0
-38 -41 0
-38 0
-41 0
38 0
41 0
77 0
-77 0
-22 0
77 0
22 0
-77 0
-46 0
46 0
46 0
-22 45 0
-46 0
-22 0
45 0
22 0
-45 0
-14 -46 0
-14 46 0
-22 0
14 46 0
22 0
14 -46 0
13 0
-14 0
13 0
-46 0
-13 0
-13 0
46 0
14 0
47 0
46 0
-47 0
46 0
46 0
-46 0
-46 0
-46 0
-30 0
30 0
30 0
-30 0
65 0
-65 0
-69 0
69 0
-64 0
64 0
-64 0
64 0
-20 0
-20 0
20 0
20 0
37 0
-37 0
-4 -29 -32 -60 0
4 0
55 0
-55 0
-55 0
55 0
32 0
29 0
60 0
-69 0
-34 -69 71 0
69 0
34 0
-71 0
30 0
30 0
-30 0
-30 0
65 0
52 65 71 0
-65 0
-53 0
-52 0
53 0
53 0
-53 0
-71 0
55 0
55 0
-55 0
-22 0
-55 0
22 0
-36 0
36 0
-28 52 64 0
28 0
-64 0
-52 0
-28 0
-36 0
-22 0
36 0
22 0
3 0
-3 0
-3 0
3 0
-29 0
-29 0
29 0
29 0
24 0
-24 0
24 0
-24 0
42 0
-42 0
-42 0
42 0
63 0
-74 0
74 0
63 0
-74 0
-31 0
74 0
31 0
-22 0
22 0
68 0
-37 0
37 0
-68 0
37 0
40 -62 0
62 0
40 62 0
-62 0
-62 0
62 0
-40 0
-23 0
23 0
-63 0
16 0
16 0
-18 0
18 0
18 0
-18 0
23 0
-23 0
16 0
-16 0
16 0
-16 0
70 0
-70 0
-31 0
31 0
-49 0
-22 0
49 0
22 0
-40 49 0
49 0
-40 -49 0
-49 0
40 0
23 0
37 0
-23 0
-37 0
16 0
-16 0
-37 0
37 0
1 0
-1 0
16 0
-16 0
16 0
-16 0
32 0
-32 0
32 0
-32 0
-31 0
-18 0
31 0
18 0
60 0
-60 0
10 24 0
10 -24 0
-10 -24 0
-10 24 0
24 0
-24 0
10 0
-10 0
60 0
-60 0
-22 0
32 0
22 0
-32 0
-22 0
22 0
50 0
-50 0
-6 -8 0
6 -8 0
6 8 0
50 0
-6 8 0
8 0
-50 0
-6 0
-8 0
6 0
60 0
-60 0
15 0
-15 0
5 -12 0
5 12 0
-5 12 0
-5 -12 0
-5 0
5 0
-12 0
12 0
22 0
-22 0
-22 0
22 0
-19 -73 0
-19 73 0
19 73 0
19 -73 0
-73 0
73 0
-19 0
19 0
60 0
-60 0
32 0
-32 0
63 0
-63 0
-31 0
31 0
-37 0
37 0
-23 0
23 0
16 0
-16 0
-23 0
23 0
16 0
-16 0
-37 0
-37 0
37 0
37 0
-23 0
-23 0
23 0
23 0
16 0
-16 0
72 0
-72 0
-31 0
72 0
31 0
-72 0
-37 0
37 0
-37 0
37 0
-23 0
6 -33 0
23 0
-6 0
33 0
16 0
-16 0
-29 0
29 0
29 0
-29 0
-12 0
4 12 0
-4 12 0
-12 0
8 0
9 -72 0
9 -63 0
33 -63 0
8 0
33 -72 0
63 72 0
-9 -33 0
-12 0
-4 0
-8 0
-23 65 0
-15 69 0
-15 65 0
-23 69 0
23 0
-65 -69 0
15 23 0
-23 0
-2 -37 0
16 0
-16 0
4 5 0
-4 0
-5 0
-31 0
-24 29 0
31 0
-29 0
24 0
32 0
-32 0
-24 25 0
-8 0
24 0
60 0
-25 0
-60 0
4 12 0
-8 35 0
8 0
-35 0
32 0
9 12 0
-9 0
-12 0
-9 0
-32 0
8 0
-8 9 0
2 12 0
2 12 0
-31 0
-12 0
31 0
-8 -33 0
8 0
33 0
-2 0
12 -33 0
33 0
-12 0
2 -8 0
8 0
-2 0
-12 0
11 43 0
-11 -43 0
-11 43 0
2 12 0
11 -43 0
11 0
-11 0
43 0
-43 0
-2 0
-8 9 0
8 0
-9 0
8 0
33 0
-8 -33 0
2 12 0
-12 0
-2 0
50 0
9 -24 0
-9 0
-50 0
24 0
-37 0
2 -24 0
24 0
50 0
-2 0
-50 0
37 0
-25 0
12 -33 0
33 0
-12 0
-24 35 0
24 0
60 0
-60 0
-35 0
16 0
-8 25 0
-25 0
8 0
32 0
-32 0
12 35 0
-12 0
-35 0
-16 25 0
-31 0
31 0
24 0
3 -24 0
-3 0
3 -8 0
8 0
-3 0
-37 0
12 25 0
-25 0
-12 0
37 0
37 0
-37 0
37 0
5 29 0
-7 0
-66 0
-7 -66 0
-29 0
66 0
7 0
-5 0
2 0
18 0
-27 0
18 -27 0
15 0
-18 0
27 0
-15 0
3 5 0
-5 0
-3 0
15 0
-3 35 0
-15 0
-3 0
2 -3 0
-9 23 31 -50 0
-23 0
9 0
50 0
-31 0
4 29 50 0
50 0
-50 0
-50 0
-29 0
-31 -33 0
-4 0
31 0
66 0
22 0
22 66 0
33 0
-22 0
-66 0
60 0
5 9 0
-9 0
-5 0
-60 0
32 0
2 5 0
-5 0
-32 0
-24 -33 0
33 0
24 0
-2 0
5 35 0
-5 0
-35 0
59 -61 0
5 25 0
-25 0
-5 0
59 61 0
59 0
15 0
-59 -61 0
-15 0
-59 61 0
-59 0
61 0
4 -24 0
-4 0
24 0
-61 0
50 0
-50 0
-29 0
8 0
-8 29 0
3 12 0
-12 0
60 0
-3 0
-60 0
-25 0
25 0
-16 0
16 0
16 0
-16 0
32 60 0
-32 0
-60 0
15 0
15 0
-15 0
15 0
-15 0
-37 0
4 -19 0
-4 0
19 0
50 0
-29 0
-11 0
-50 0
11 29 0
-16 0
11 35 0
-35 0
-11 0
39 -75 0
39 75 0
-39 75 0
15 0
-39 -75 0
-15 0
-75 0
75 0
9 10 0
-9 0
-10 0
39 0
-39 0
61 0
-61 0
2 10 0
-2 0
-10 0
5 -33 0
33 0
-5 0
9 11 0
9 11 0
-9 0
-9 0
-11 0
-11 0
76 0
76 0
-76 0
-76 0
15 0
-15 0
2 11 0
-2 0
50 0
-11 0
-50 0
-10 0
33 0
10 -33 0
10 35 0
-35 0
-10 0
-22 0
-22 0
22 0
22 0
-11 0
11 25 0
-25 0
10 25 0
-25 0
-10 0
3 11 0
-3 0
-11 0
3 10 0
-3 0
-10 0
22 0
-22 0
-22 0
22 0
15 0
-15 0
-29 0
19 0
-19 29 0
-37 0
46 0
-46 0
3 -19 0
19 0
-3 0
37 0
-19 25 0
-25 0
19 0
-19 35 0
19 0
-35 0
-10 0
10 0
-10 0
10 0
35 0
-35 0
-35 0
35 0
9 11 0
-9 0
-11 0
-25 0
-25 0
25 0
-3 0
25 0
-3 0
9 -19 0
19 0
-9 0
-5 0
5 0
-5 0
5 0
3 0
3 0
11 -33 0
33 0
-11 0
2 -19 0
19 0
-2 0
25 0
-25 0
-25 0
25 0
3 6 0
-6 0
-3 0
6 25 0
-25 0
-6 0
19 0
-19 0
19 0
-19 0
2 0
-2 0
-2 0
2 0
-9 0
-9 0
9 0
9 0
-35 0
-35 0
35 0
35 0
-11 0
11 0
-11 0
11 0
2 6 0
-6 0
-2 0
-19 -33 0
33 0
19 0
6 9 0
-9 0
-6 0
6 35 0
-6 0
-35 0
6 29 0
-29 0
-6 0
4 6 0
-4 0
-6 0
4 11 0
-4 0
-11 0
10 29 0
-29 0
-10 0
43 0
43 0
-43 0
-43 0
-40 0
40 0
-40 0
40 0
-42 -62 0
-42 62 0
42 -62 0
42 62 0
62 0
-62 0
42 0
-42 0
72 0
-72 0
4 10 0
-4 0
-10 0
-56 0
-6 0
6 0
-6 0
6 0
33 0
-33 0
-2 0
-2 0
2 0
2 0
-33 0
33 0
-33 0
33 0
33 0
8 0
-4 0
4 -8 0
-33 0
12 29 0
-29 0
-12 0
-21 71 0
-21 -71 0
21 -71 0
21 71 0
21 0
-21 0
71 0
-71 0
-27 0
27 0
27 0
-27 0
21 0
-21 0
-21 0
21 0
-30 0
30 0
30 70 0
-30 70 0
-30 0
30 0
-70 0
44 -68 0
-68 0
44 0
68 0
-44 0
56 0
56 0
-56 0
-44 0
-67 0
-44 -67 0
-67 0
36 -57 -67 0
44 0
67 0
57 0
-36 0
67 0
-26 0
-26 0
26 0
26 0
-54 0
-26 -54 64 0
54 0
26 0
-64 0
52 -53 0
-52 -53 0
-52 53 0
52 53 0
52 0
-52 0
-53 0
53 0
26 0
-26 0
-26 0
-36 0
45 0
-36 0
45 0
-45 0
36 0
67 0
1 67 0
26 0
-1 0
-67 0
36 0
-44 45 -55 0
44 0
